Set parameter Username
Set parameter TimeLimit to value 60
Set parameter LogFile to value "gurobi.log"
Using license file C:\Users\paulm\gurobi.lic
Academic license - for non-commercial use only - expires 2024-12-11

Gurobi Optimizer version 11.0.0 build v11.0.0rc2 (win64 - Windows 10.0 (19045.2))
Copyright (c) 2023, Gurobi Optimization, LLC

Read LP format model from file C:\Users\paulm\AppData\Local\Temp\1499c8af288247b085b8527b6925acac-pulp.lp
Reading time = 0.07 seconds
sum_of_the_cost_of_the_selected_arcs: 118 rows, 569 columns, 1646 nonzeros

CPU model: Intel(R) Atom(TM) x5-Z8550  CPU @ 1.44GHz, instruction set [SSE2]
Thread count: 4 physical cores, 4 logical processors, using up to 4 threads

Optimize a model with 118 rows, 569 columns and 1646 nonzeros
Model fingerprint: 0x1e095d7b
Variable types: 1 continuous, 568 integer (568 binary)
Coefficient statistics:
  Matrix range     [1e+00, 1e+00]
  Objective range  [9e+00, 2e+05]
  Bounds range     [1e+00, 1e+00]
  RHS range        [1e+00, 1e+00]
Presolve removed 41 rows and 149 columns
Presolve time: 0.05s

Explored 0 nodes (0 simplex iterations) in 0.06 seconds (0.01 work units)
Thread count was 1 (of 4 available processors)

Solution count 0

Model is infeasible
Best objective -, best bound -, gap -

Unable to retrieve attribute 'X'

Traceback (most recent call last):
  File "c:\Users\paulm\Documents\GitHub\Optim-Project\Project\implementation.py", line 153, in <module>
    next_flight= int(sum(j*x[0,j, k].varValue for j in range (len(graph)) if (0,j, k) in indicesijk))
  File "c:\Users\paulm\Documents\GitHub\Optim-Project\Project\implementation.py", line 153, in <genexpr>
    next_flight= int(sum(j*x[0,j, k].varValue for j in range (len(graph)) if (0,j, k) in indicesijk))
TypeError: unsupported operand type(s) for *: 'int' and 'NoneType'